12
0 62 80 100 35 47 68 7 24 33 12 87 
6 0 46 57 39 60 29 68 56 19 93 5 
63 60 0 90 10 2 9 4 27 61 40 88 
89 63 84 0 75 58 62 96 2 18 43 13 
54 11 9 35 0 75 50 99 95 32 79 40 
100 92 8 95 60 0 84 95 3 40 23 93 
5 78 11 83 95 33 0 58 35 59 54 71 
50 13 26 78 61 49 80 0 17 20 32 37 
81 3 25 61 53 59 3 88 0 77 91 89 
76 57 31 41 100 39 88 56 61 0 5 14 
14 89 24 42 5 22 50 17 4 83 0 51 
9 99 16 31 12 40 38 41 98 55 54 0 
